
Gurobi 7.5.2 (mac64, Python) logging started Sun Sep 23 04:40:44 2018

Academic license - for non-commercial use only
Optimize a model with 32 rows, 128 columns and 256 nonzeros
Variable types: 0 continuous, 128 integer (128 binary)
Coefficient statistics:
  Matrix range     [1e+00, 1e+00]
  Objective range  [1e+02, 7e+02]
  Bounds range     [1e+00, 1e+00]
  RHS range        [1e+00, 1e+00]
Found heuristic solution: objective 3800.0000000
Presolve removed 16 rows and 64 columns
Presolve time: 0.01s
Presolved: 16 rows, 64 columns, 128 nonzeros
Found heuristic solution: objective 2200.0000000
Variable types: 0 continuous, 64 integer (64 binary)

Root relaxation: objective 0.000000e+00, 8 iterations, 0.00 seconds

    Nodes    |    Current Node    |     Objective Bounds      |     Work
 Expl Unexpl |  Obj  Depth IntInf | Incumbent    BestBd   Gap | It/Node Time

*    0     0               0       0.0000000    0.00000  0.00%     -    0s

Explored 0 nodes (8 simplex iterations) in 0.12 seconds
Thread count was 4 (of 4 available processors)

Solution count 2: 0 2200 

Optimal solution found (tolerance 1.00e-04)
Best objective 0.000000000000e+00, best bound 0.000000000000e+00, gap 0.0000%

Gurobi 7.5.2 (mac64, Python) logging started Sun Sep 23 11:32:18 2018

Academic license - for non-commercial use only
Optimize a model with 32 rows, 128 columns and 256 nonzeros
Variable types: 0 continuous, 128 integer (128 binary)
Coefficient statistics:
  Matrix range     [1e+00, 1e+00]
  Objective range  [1e+02, 1e+100]
  Bounds range     [1e+00, 1e+00]
  RHS range        [1e+00, 1e+00]
Warning: Model contains large objective coefficients
         Consider reformulating model or setting NumericFocus parameter
         to avoid numerical issues.
Presolve removed 16 rows and 64 columns
Presolve time: 0.03s
Presolved: 16 rows, 64 columns, 128 nonzeros
Variable types: 0 continuous, 64 integer (64 binary)
Found heuristic solution: objective 2000.0000000

Root relaxation: objective 1.800000e+03, 12 iterations, 0.00 seconds

    Nodes    |    Current Node    |     Objective Bounds      |     Work
 Expl Unexpl |  Obj  Depth IntInf | Incumbent    BestBd   Gap | It/Node Time

*    0     0               0    1800.0000000 1800.00000  0.00%     -    0s

Explored 0 nodes (12 simplex iterations) in 0.10 seconds
Thread count was 4 (of 4 available processors)

Solution count 2: 1800 2000 

Optimal solution found (tolerance 1.00e-04)
Best objective 1.800000000000e+03, best bound 1.800000000000e+03, gap 0.0000%
Optimize a model with 32 rows, 128 columns and 256 nonzeros
Variable types: 0 continuous, 128 integer (128 binary)
Coefficient statistics:
  Matrix range     [1e+00, 1e+00]
  Objective range  [1e+02, 1e+100]
  Bounds range     [1e+00, 1e+00]
  RHS range        [1e+00, 1e+00]
Warning: Model contains large objective coefficients
         Consider reformulating model or setting NumericFocus parameter
         to avoid numerical issues.
Presolve removed 16 rows and 64 columns
Presolve time: 0.00s
Presolved: 16 rows, 64 columns, 128 nonzeros
Variable types: 0 continuous, 64 integer (64 binary)
Found heuristic solution: objective 2000.0000000

Root relaxation: objective 1.800000e+03, 12 iterations, 0.00 seconds

    Nodes    |    Current Node    |     Objective Bounds      |     Work
 Expl Unexpl |  Obj  Depth IntInf | Incumbent    BestBd   Gap | It/Node Time

*    0     0               0    1800.0000000 1800.00000  0.00%     -    0s

Explored 0 nodes (12 simplex iterations) in 0.07 seconds
Thread count was 4 (of 4 available processors)

Solution count 2: 1800 2000 

Optimal solution found (tolerance 1.00e-04)
Best objective 1.800000000000e+03, best bound 1.800000000000e+03, gap 0.0000%
Optimize a model with 32 rows, 128 columns and 256 nonzeros
Variable types: 0 continuous, 128 integer (128 binary)
Coefficient statistics:
  Matrix range     [1e+00, 1e+00]
  Objective range  [1e+02, 1e+100]
  Bounds range     [1e+00, 1e+00]
  RHS range        [1e+00, 1e+00]
Warning: Model contains large objective coefficients
         Consider reformulating model or setting NumericFocus parameter
         to avoid numerical issues.
Presolve removed 16 rows and 64 columns
Presolve time: 0.02s
Presolved: 16 rows, 64 columns, 128 nonzeros
Variable types: 0 continuous, 64 integer (64 binary)
Found heuristic solution: objective 2000.0000000

Root relaxation: objective 1.800000e+03, 12 iterations, 0.00 seconds

    Nodes    |    Current Node    |     Objective Bounds      |     Work
 Expl Unexpl |  Obj  Depth IntInf | Incumbent    BestBd   Gap | It/Node Time

*    0     0               0    1800.0000000 1800.00000  0.00%     -    0s

Explored 0 nodes (12 simplex iterations) in 0.07 seconds
Thread count was 4 (of 4 available processors)

Solution count 2: 1800 2000 

Optimal solution found (tolerance 1.00e-04)
Best objective 1.800000000000e+03, best bound 1.800000000000e+03, gap 0.0000%
Optimize a model with 32 rows, 128 columns and 256 nonzeros
Variable types: 0 continuous, 128 integer (128 binary)
Coefficient statistics:
  Matrix range     [1e+00, 1e+00]
  Objective range  [1e+02, 1e+100]
  Bounds range     [1e+00, 1e+00]
  RHS range        [1e+00, 1e+00]
Warning: Model contains large objective coefficients
         Consider reformulating model or setting NumericFocus parameter
         to avoid numerical issues.
Presolve removed 16 rows and 64 columns
Presolve time: 0.00s
Presolved: 16 rows, 64 columns, 128 nonzeros
Variable types: 0 continuous, 64 integer (64 binary)
Found heuristic solution: objective 2200.0000000

Root relaxation: objective 2.000000e+03, 11 iterations, 0.00 seconds

    Nodes    |    Current Node    |     Objective Bounds      |     Work
 Expl Unexpl |  Obj  Depth IntInf | Incumbent    BestBd   Gap | It/Node Time

*    0     0               0    2000.0000000 2000.00000  0.00%     -    0s

Explored 0 nodes (11 simplex iterations) in 0.13 seconds
Thread count was 4 (of 4 available processors)

Solution count 2: 2000 2200 

Optimal solution found (tolerance 1.00e-04)
Best objective 2.000000000000e+03, best bound 2.000000000000e+03, gap 0.0000%
Optimize a model with 16 rows, 66 columns and 128 nonzeros
Variable types: 0 continuous, 66 integer (66 binary)
Coefficient statistics:
  Matrix range     [1e+00, 1e+00]
  Objective range  [1e+02, 1e+100]
  Bounds range     [1e+00, 1e+00]
  RHS range        [1e+00, 1e+00]
Warning: Model contains large objective coefficients
         Consider reformulating model or setting NumericFocus parameter
         to avoid numerical issues.
Presolve removed 0 rows and 2 columns
Presolve time: 0.00s
Presolved: 16 rows, 64 columns, 128 nonzeros
Variable types: 0 continuous, 64 integer (64 binary)
Found heuristic solution: objective 0.0000000

Explored 0 nodes (0 simplex iterations) in 0.07 seconds
Thread count was 4 (of 4 available processors)

Solution count 1: 0 

Optimal solution found (tolerance 1.00e-04)
Best objective 0.000000000000e+00, best bound 0.000000000000e+00, gap 0.0000%
Optimize a model with 32 rows, 128 columns and 256 nonzeros
Variable types: 0 continuous, 128 integer (128 binary)
Coefficient statistics:
  Matrix range     [1e+00, 1e+00]
  Objective range  [1e+02, 1e+100]
  Bounds range     [1e+00, 1e+00]
  RHS range        [1e+00, 1e+00]
Warning: Model contains large objective coefficients
         Consider reformulating model or setting NumericFocus parameter
         to avoid numerical issues.
Presolve removed 16 rows and 64 columns
Presolve time: 0.04s
Presolved: 16 rows, 64 columns, 128 nonzeros
Variable types: 0 continuous, 64 integer (64 binary)
Found heuristic solution: objective 1200.0000000

Root relaxation: cutoff, 8 iterations, 0.00 seconds

    Nodes    |    Current Node    |     Objective Bounds      |     Work
 Expl Unexpl |  Obj  Depth IntInf | Incumbent    BestBd   Gap | It/Node Time

     0     0     cutoff    0      1200.00000 1200.00000  0.00%     -    0s

Explored 0 nodes (8 simplex iterations) in 0.25 seconds
Thread count was 4 (of 4 available processors)

Solution count 1: 1200 

Optimal solution found (tolerance 1.00e-04)
Best objective 1.200000000000e+03, best bound 1.200000000000e+03, gap 0.0000%
